units metal
atom_style atomic
boundary p p p

read_data RUNDIR/init.data

mass * 63.55

TABLESTYLE
TABLECOEFF

timestep       0.001


variable    T equal 1500

velocity all create $T SEED rot yes dist gaussian

fix 1 all nvt temp $T $T 0.1

thermo_style   custom step cpu etotal pe ke temp vol press pxx pyy pzz pxy pxz pyz 
thermo 1000

run 500000

